c b=4,c=1539
p cnf 19 79
1 3 4 -8 0
2 4 -9 0
1 3 4 -17 0
2 4 -18 0
1 3 -4 8 0
1 3 -4 9 0
1 3 -4 17 0
1 3 -4 18 0
2 3 -7 0
1 3 -10 0
2 3 -16 0
1 3 -19 0
2 -3 4 8 0
4 -10 0
2 -3 4 17 0
4 -19 0
2 -3 -4 -8 0
-3 -4 10 0
2 -3 -4 -17 0
-3 -4 19 0
2 -3 7 0
2 -3 -9 0
2 -3 16 0
2 -3 -18 0
1 2 -6 0
1 2 -15 0
1 -2 4 -8 0
3 4 -9 0
1 -2 4 -17 0
3 4 -18 0
1 -2 -4 8 0
1 -2 -4 17 0
1 -2 3 7 0
1 -2 3 16 0
-2 -3 4 9 0
-2 -3 4 18 0
-3 -4 -9 0
-3 -4 -18 0
1 -2 -3 -7 0
1 -2 -3 -16 0
1 -2 6 0
1 -2 15 0
1 -5 0
1 -14 0
2 3 4 -8 0
2 3 4 -17 0
2 3 -4 8 0
2 3 -4 9 0
2 3 -4 17 0
2 3 -4 18 0
-1 3 -7 0
2 3 -10 0
-1 3 -16 0
2 3 -19 0
-1 -3 7 0
-1 -3 16 0
-1 2 6 0
-1 2 15 0
-1 -2 3 4 8 0
-1 -2 3 4 17 0
-1 -2 3 -4 -8 0
-1 -2 -4 10 0
-1 -2 3 -4 -17 0
-1 -2 -4 19 0
-1 -2 3 -9 0
-1 -2 3 -18 0
-2 -3 4 -8 0
-2 -3 4 -17 0
-2 -3 -4 8 0
-1 -2 -4 -9 0
-2 -3 -4 17 0
-1 -2 -4 -18 0
-1 -2 -6 0
-1 -2 -15 0
-1 5 0
-1 14 0
-11 0
-12 0
-13 0
